430
1 0 5 394 1 409 1 411 1 410 1 395 1
2 0 5 138 1 59 1 130 1 180 1 85 1
3 0 5 129 1 178 1 69 1 137 1 146 1
4 0 5 181 1 131 1 137 1 70 1 75 1
5 0 5 185 1 20 1 30 1 79 1 142 1
6 0 5 43 1 109 1 99 1 32 1 197 1
7 0 5 51 1 27 1 90 1 98 1 58 1
8 0 5 84 1 98 1 51 1 151 1 18 1
9 0 5 245 1 335 1 429 1 159 1 405 1
10 0 5 62 1 21 1 106 1 74 1 310 1
11 0 5 134 1 31 1 65 1 162 1 188 1
12 0 5 45 1 120 1 184 1 119 1 174 1
13 0 5 382 1 312 1 272 1 257 1 332 1
14 0 5 290 1 261 1 81 1 288 1 202 1
15 0 5 26 1 53 1 95 1 179 1 101 1
16 0 5 183 1 191 1 36 1 184 1 107 1
17 0 5 29 1 33 1 41 1 40 1 24 1
18 0 5 116 1 53 1 8 1 115 1 98 1
19 0 5 327 1 391 1 256 1 289 1 291 1
20 0 5 142 1 5 1 146 1 185 1 10 1
21 0 5 10 1 62 1 74 1 310 1 370 1
22 0 5 307 1 254 1 311 1 367 1 347 1
23 0 5 34 1 182 1 44 1 134 1 99 1
24 0 5 111 1 75 1 41 1 17 1 29 1
25 0 5 143 1 168 1 340 1 384 1 363 1
26 0 5 15 1 179 1 53 1 101 1 173 1
27 0 5 7 1 90 1 196 1 112 1 83 1
28 0 5 395 1 397 1 398 1 396 1 57 1
29 0 5 17 1 41 1 33 1 40 1 24 1
30 0 5 79 1 185 1 5 1 138 1 66 1
31 0 5 65 1 11 1 120 1 45 1 134 1
32 0 5 113 1 100 1 164 1 162 1 6 1
33 0 5 17 1 29 1 40 1 41 1 86 1
34 0 5 23 1 99 1 197 1 182 1 54 1
35 0 5 171 1 86 1 429 1 245 1 407 1
36 0 5 160 1 191 1 16 1 183 1 76 1
37 0 5 118 1 157 1 58 1 38 1 115 1
38 0 5 157 1 115 1 116 1 98 1 8 1
39 0 5 96 1 125 1 247 1 343 1 177 1
40 0 5 33 1 44 1 61 1 17 1 86 1
41 0 5 63 1 29 1 17 1 197 1 33 1
42 0 5 100 1 174 1 145 1 65 1 12 1
43 0 5 6 1 99 1 162 1 109 1 32 1
44 0 5 182 1 40 1 61 1 23 1 193 1
45 0 5 120 1 12 1 174 1 31 1 65 1
46 0 5 189 1 258 1 269 1 351 1 320 1
47 0 5 153 1 178 1 129 1 146 1 3 1
48 0 5 231 1 248 1 52 1 294 1 132 1
49 0 5 281 1 176 1 291 1 241 1 384 1
50 0 5 127 1 74 1 106 1 72 1 147 1
51 0 5 7 1 98 1 8 1 151 1 84 1
52 0 5 218 1 48 1 248 1 328 1 294 1
53 0 5 18 1 151 1 15 1 26 1 116 1
54 0 5 158 1 197 1 34 1 109 1 41 1
55 0 5 224 1 124 1 309 1 110 1 369 1
56 0 5 386 1 347 1 77 1 307 1 232 1
57 0 5 172 1 28 1 186 1 333 1 379 1
58 0 5 83 1 118 1 7 1 98 1 51 1
59 0 5 130 1 2 1 85 1 138 1 72 1
60 0 5 191 1 167 1 196 1 195 1 36 1
61 0 5 193 1 44 1 40 1 182 1 188 1
62 0 5 10 1 74 1 106 1 21 1 310 1
63 0 5 111 1 41 1 75 1 197 1 17 1
64 0 5 361 1 241 1 250 1 103 1 353 1
65 0 5 31 1 162 1 11 1 42 1 164 1
66 0 5 138 1 106 1 127 1 79 1 62 1
67 0 5 229 1 284 1 354 1 348 1 236 1
68 0 5 105 1 128 1 137 1 69 1 175 1
69 0 5 105 1 146 1 3 1 68 1 129 1
70 0 5 131 1 175 1 137 1 4 1 68 1
71 0 5 87 1 273 1 207 1 271 1 253 1
72 0 5 127 1 165 1 97 1 140 1 50 1
73 0 5 345 1 82 1 323 1 302 1 346 1
74 0 5 50 1 62 1 106 1 310 1 21 1
75 0 5 24 1 181 1 137 1 63 1 4 1
76 0 5 108 1 169 1 183 1 36 1 160 1
77 0 5 156 1 347 1 379 1 56 1 307 1
78 0 5 119 1 184 1 192 1 167 1 191 1
79 0 5 30 1 146 1 105 1 138 1 185 1
80 0 5 177 1 95 1 96 1 125 1 15 1
81 0 5 261 1 202 1 14 1 366 1 290 1
82 0 5 239 1 104 1 186 1 345 1 251 1
83 0 5 58 1 190 1 27 1 118 1 169 1
84 0 5 151 1 8 1 51 1 98 1 53 1
85 0 5 130 1 175 1 163 1 180 1 59 1
86 0 5 35 1 40 1 33 1 61 1 350 1
87 0 5 253 1 71 1 273 1 207 1 267 1
88 0 5 231 1 352 1 388 1 132 1 220 1
89 0 5 367 1 150 1 301 1 307 1 22 1
90 0 5 112 1 27 1 173 1 7 1 179 1
91 0 5 147 1 140 1 331 1 360 1 292 1
92 0 5 139 1 219 1 171 1 429 1 395 1
93 0 5 144 1 343 1 318 1 384 1 247 1
94 0 5 102 1 298 1 257 1 362 1 255 1
95 0 5 80 1 125 1 15 1 96 1 177 1
96 0 5 39 1 177 1 95 1 125 1 80 1
97 0 5 165 1 72 1 360 1 140 1 91 1
98 0 5 115 1 8 1 51 1 84 1 7 1
99 0 5 109 1 6 1 43 1 34 1 23 1
100 0 5 42 1 32 1 113 1 164 1 162 1
101 0 5 125 1 173 1 179 1 353 1 26 1
102 0 5 94 1 342 1 362 1 387 1 367 1
103 0 5 141 1 241 1 309 1 238 1 224 1
104 0 5 345 1 82 1 296 1 219 1 429 1
105 0 5 68 1 69 1 79 1 146 1 128 1
106 0 5 66 1 127 1 62 1 74 1 50 1
107 0 5 145 1 108 1 184 1 183 1 36 1
108 0 5 76 1 107 1 169 1 183 1 36 1
109 0 5 99 1 6 1 54 1 34 1 197 1
110 0 5 369 1 289 1 55 1 391 1 212 1
111 0 5 63 1 24 1 41 1 75 1 17 1
112 0 5 90 1 27 1 173 1 196 1 239 1
113 0 5 32 1 164 1 100 1 162 1 65 1
114 0 5 133 1 342 1 387 1 123 1 227 1
115 0 5 38 1 98 1 116 1 18 1 8 1
116 0 5 18 1 115 1 38 1 53 1 8 1
117 0 5 168 1 247 1 343 1 25 1 39 1
118 0 5 37 1 58 1 157 1 83 1 108 1
119 0 5 78 1 12 1 120 1 184 1 192 1
120 0 5 45 1 12 1 31 1 119 1 184 1
121 0 5 187 1 385 1 126 1 331 1 209 1
122 0 5 372 1 226 1 168 1 256 1 117 1
123 0 5 227 1 114 1 258 1 133 1 387 1
124 0 5 55 1 344 1 309 1 373 1 289 1
125 0 5 39 1 101 1 95 1 96 1 144 1
126 0 5 121 1 356 1 385 1 310 1 331 1
127 0 5 50 1 72 1 106 1 66 1 74 1
128 0 5 180 1 68 1 105 1 79 1 138 1
129 0 5 3 1 137 1 69 1 178 1 47 1
130 0 5 59 1 85 1 2 1 163 1 175 1
131 0 5 70 1 4 1 137 1 68 1 3 1
132 0 5 203 1 299 1 294 1 48 1 198 1
133 0 5 114 1 387 1 342 1 123 1 102 1
134 0 5 11 1 188 1 31 1 34 1 148 1
135 0 5 300 1 240 1 243 1 304 1 377 1
136 0 5 229 1 357 1 287 1 378 1 67 1
137 0 5 181 1 131 1 68 1 129 1 70 1
138 0 5 66 1 2 1 79 1 30 1 128 1
139 0 5 171 1 92 1 219 1 429 1 395 1
140 0 5 147 1 165 1 91 1 97 1 72 1
141 0 5 103 1 361 1 210 1 224 1 250 1
142 0 5 20 1 5 1 170 1 370 1 185 1
143 0 5 25 1 340 1 363 1 384 1 168 1
144 0 5 93 1 343 1 353 1 318 1 250 1
145 0 5 174 1 107 1 42 1 12 1 45 1
146 0 5 69 1 178 1 79 1 105 1 3 1
147 0 5 91 1 140 1 50 1 385 1 165 1
148 0 5 188 1 194 1 134 1 182 1 23 1
149 0 5 337 1 317 1 304 1 316 1 243 1
150 0 5 235 1 89 1 301 1 367 1 22 1
151 0 5 84 1 53 1 8 1 179 1 51 1
152 0 5 328 1 269 1 218 1 231 1 258 1
153 0 5 47 1 178 1 146 1 350 1 129 1
154 0 5 217 1 230 1 271 1 223 1 277 1
155 0 5 370 1 221 1 310 1 245 1 21 1
156 0 5 77 1 307 1 232 1 347 1 386 1
157 0 5 37 1 38 1 118 1 116 1 58 1
158 0 5 54 1 197 1 34 1 41 1 109 1
159 0 5 245 1 1 1 400 1 395 1 396 1
160 0 5 190 1 36 1 169 1 76 1 196 1
161 0 5 316 1 225 1 387 1 280 1 254 1
162 0 5 164 1 65 1 11 1 134 1 43 1
163 0 5 180 1 175 1 85 1 68 1 128 1
164 0 5 113 1 162 1 32 1 100 1 65 1
165 0 5 97 1 72 1 140 1 91 1 147 1
166 0 5 271 1 376 1 277 1 386 1 253 1
167 0 5 191 1 184 1 36 1 60 1 192 1
168 0 5 117 1 25 1 247 1 122 1 143 1
169 0 5 76 1 160 1 190 1 108 1 36 1
170 0 5 245 1 142 1 20 1 5 1 221 1
171 0 5 139 1 429 1 92 1 405 1 404 1
172 0 5 214 1 57 1 429 1 423 1 200 1
173 0 5 179 1 101 1 90 1 112 1 26 1
174 0 5 145 1 42 1 45 1 12 1 65 1
175 0 5 70 1 85 1 163 1 68 1 137 1
176 0 5 49 1 291 1 281 1 384 1 327 1
177 0 5 80 1 96 1 95 1 125 1 247 1
178 0 5 3 1 146 1 129 1 47 1 69 1
179 0 5 173 1 26 1 15 1 90 1 101 1
180 0 5 128 1 163 1 85 1 2 1 138 1
181 0 5 4 1 75 1 137 1 129 1 3 1
182 0 5 23 1 44 1 34 1 188 1 134 1
183 0 5 16 1 108 1 107 1 184 1 76 1
184 0 5 107 1 12 1 16 1 191 1 183 1
185 0 5 30 1 5 1 79 1 20 1 142 1
186 0 5 82 1 302 1 424 1 420 1 425 1
187 0 5 209 1 121 1 126 1 292 1 331 1
188 0 5 134 1 148 1 194 1 182 1 31 1
189 0 5 46 1 320 1 351 1 269 1 258 1
190 0 5 160 1 169 1 83 1 196 1 27 1
191 0 5 36 1 16 1 184 1 167 1 60 1
192 0 5 78 1 167 1 171 1 191 1 195 1
193 0 5 61 1 44 1 40 1 359 1 182 1
194 0 5 188 1 148 1 134 1 359 1 182 1
195 0 5 92 1 139 1 219 1 171 1 399 1
196 0 5 190 1 27 1 112 1 90 1 60 1
197 0 5 158 1 54 1 41 1 34 1 63 1
198 0 5 299 1 286 1 203 1 132 1 268 1
199 0 5 373 1 222 1 344 1 237 1 338 1
200 0 5 172 1 28 1 215 1 379 1 333 1
201 0 5 260 1 233 1 392 1 322 1 380 1
202 0 5 261 1 81 1 349 1 366 1 375 1
203 0 5 132 1 198 1 286 1 255 1 294 1
204 0 5 208 1 272 1 339 1 249 1 312 1
205 0 5 355 1 259 1 242 1 392 1 263 1
206 0 5 319 1 246 1 303 1 393 1 315 1
207 0 5 267 1 273 1 390 1 71 1 87 1
208 0 5 204 1 312 1 249 1 272 1 306 1
209 0 5 187 1 121 1 268 1 332 1 292 1
210 0 5 253 1 141 1 103 1 323 1 390 1
211 0 5 315 1 368 1 341 1 278 1 374 1
212 0 5 289 1 373 1 391 1 237 1 110 1
213 0 5 386 1 323 1 251 1 295 1 376 1
214 0 5 172 1 28 1 333 1 379 1 186 1
215 0 5 395 1 397 1 398 1 396 1 28 1
216 0 5 326 1 283 1 380 1 341 1 260 1
217 0 5 330 1 223 1 376 1 336 1 230 1
218 0 5 328 1 52 1 152 1 231 1 48 1
219 0 5 92 1 139 1 104 1 171 1 429 1
220 0 5 313 1 268 1 388 1 292 1 352 1
221 0 5 245 1 429 1 395 1 396 1 155 1
222 0 5 199 1 390 1 344 1 373 1 207 1
223 0 5 308 1 217 1 336 1 230 1 154 1
224 0 5 55 1 141 1 103 1 124 1 110 1
225 0 5 280 1 161 1 311 1 316 1 304 1
226 0 5 372 1 364 1 244 1 122 1 256 1
227 0 5 123 1 258 1 114 1 305 1 387 1
228 0 5 252 1 325 1 277 1 236 1 275 1
229 0 5 136 1 67 1 287 1 357 1 354 1
230 0 5 277 1 242 1 381 1 371 1 217 1
231 0 5 88 1 48 1 218 1 152 1 328 1
232 0 5 156 1 333 1 235 1 28 1 379 1
233 0 5 392 1 201 1 308 1 260 1 205 1
234 0 5 264 1 375 1 349 1 366 1 266 1
235 0 5 150 1 301 1 379 1 312 1 232 1
236 0 5 354 1 275 1 252 1 228 1 67 1
237 0 5 244 1 365 1 338 1 358 1 373 1
238 0 5 345 1 361 1 103 1 241 1 104 1
239 0 5 1 1 409 1 402 1 401 1 395 1
240 0 5 135 1 377 1 279 1 314 1 304 1
241 0 5 309 1 64 1 49 1 103 1 281 1
242 0 5 371 1 230 1 381 1 263 1 288 1
243 0 5 135 1 304 1 337 1 311 1 254 1
244 0 5 226 1 358 1 364 1 237 1 391 1
245 0 5 221 1 159 1 1 1 407 1 400 1
246 0 5 206 1 303 1 319 1 393 1 315 1
247 0 5 117 1 343 1 39 1 168 1 122 1
248 0 5 294 1 362 1 48 1 270 1 52 1
249 0 5 208 1 204 1 339 1 306 1 335 1
250 0 5 103 1 241 1 64 1 239 1 353 1
251 0 5 82 1 213 1 295 1 296 1 282 1
252 0 5 228 1 275 1 236 1 277 1 354 1
253 0 5 210 1 390 1 87 1 71 1 124 1
254 0 5 22 1 311 1 161 1 280 1 307 1
255 0 5 382 1 286 1 257 1 203 1 13 1
256 0 5 363 1 391 1 19 1 226 1 244 1
257 0 5 255 1 312 1 13 1 382 1 94 1
258 0 5 227 1 269 1 46 1 123 1 305 1
259 0 5 355 1 389 1 262 1 374 1 205 1
260 0 5 329 1 326 1 201 1 216 1 380 1
261 0 5 202 1 81 1 14 1 290 1 349 1
262 0 5 389 1 374 1 259 1 355 1 368 1
263 0 5 288 1 290 1 371 1 14 1 242 1
264 0 5 266 1 234 1 334 1 375 1 202 1
265 0 5 159 1 204 1 9 1 221 1 208 1
266 0 5 334 1 264 1 374 1 234 1 389 1
267 0 5 207 1 325 1 348 1 273 1 71 1
268 0 5 220 1 388 1 299 1 209 1 332 1
269 0 5 152 1 258 1 320 1 46 1 189 1
270 0 5 294 1 248 1 255 1 203 1 94 1
271 0 5 277 1 71 1 166 1 325 1 87 1
272 0 5 13 1 332 1 208 1 204 1 339 1
273 0 5 207 1 267 1 71 1 390 1 87 1
274 0 5 305 1 383 1 341 1 317 1 258 1
275 0 5 252 1 236 1 354 1 277 1 228 1
276 0 5 380 1 322 1 279 1 216 1 293 1
277 0 5 271 1 252 1 166 1 230 1 228 1
278 0 5 368 1 329 1 211 1 283 1 341 1
279 0 5 293 1 276 1 314 1 322 1 380 1
280 0 5 225 1 311 1 22 1 161 1 367 1
281 0 5 49 1 291 1 176 1 64 1 241 1
282 0 5 295 1 82 1 28 1 215 1 285 1
283 0 5 326 1 341 1 278 1 216 1 329 1
284 0 5 348 1 67 1 364 1 199 1 338 1
285 0 5 28 1 282 1 333 1 215 1 82 1
286 0 5 198 1 255 1 382 1 203 1 332 1
287 0 5 372 1 357 1 364 1 136 1 229 1
288 0 5 290 1 14 1 263 1 371 1 261 1
289 0 5 212 1 110 1 19 1 369 1 55 1
290 0 5 14 1 288 1 261 1 263 1 81 1
291 0 5 327 1 176 1 49 1 281 1 369 1
292 0 5 313 1 331 1 360 1 220 1 187 1
293 0 5 279 1 322 1 135 1 276 1 240 1
294 0 5 248 1 270 1 48 1 132 1 203 1
295 0 5 282 1 251 1 213 1 82 1 296 1
296 0 5 104 1 82 1 186 1 323 1 345 1
297 0 5 393 1 351 1 341 1 258 1 46 1
298 0 5 94 1 301 1 102 1 312 1 255 1
299 0 5 198 1 132 1 268 1 388 1 203 1
300 0 5 135 1 330 1 337 1 243 1 254 1
301 0 5 307 1 89 1 379 1 150 1 298 1
302 0 5 186 1 82 1 73 1 282 1 345 1
303 0 5 246 1 206 1 393 1 315 1 319 1
304 0 5 316 1 337 1 161 1 149 1 243 1
305 0 5 274 1 383 1 258 1 227 1 123 1
306 0 5 208 1 204 1 335 1 249 1 172 1
307 0 5 22 1 301 1 156 1 89 1 367 1
308 0 5 223 1 322 1 233 1 392 1 201 1
309 0 5 369 1 55 1 241 1 327 1 103 1
310 0 5 385 1 74 1 126 1 62 1 356 1
311 0 5 280 1 22 1 254 1 225 1 161 1
312 0 5 13 1 257 1 208 1 204 1 272 1
313 0 5 292 1 220 1 331 1 268 1 187 1
314 0 5 377 1 279 1 135 1 240 1 216 1
315 0 5 211 1 303 1 393 1 341 1 246 1
316 0 5 304 1 161 1 225 1 337 1 149 1
317 0 5 149 1 383 1 337 1 305 1 316 1
318 0 5 93 1 384 1 144 1 117 1 340 1
319 0 5 206 1 393 1 246 1 303 1 315 1
320 0 5 351 1 189 1 269 1 46 1 319 1
321 0 5 332 1 339 1 272 1 382 1 126 1
322 0 5 276 1 293 1 380 1 308 1 279 1
323 0 5 213 1 296 1 73 1 82 1 210 1
324 0 5 350 1 178 1 129 1 3 1 47 1
325 0 5 267 1 348 1 228 1 273 1 71 1
326 0 5 283 1 341 1 216 1 278 1 329 1
327 0 5 291 1 19 1 309 1 384 1 340 1
328 0 5 152 1 218 1 52 1 231 1 269 1
329 0 5 278 1 368 1 326 1 260 1 283 1
330 0 5 376 1 386 1 217 1 300 1 347 1
331 0 5 385 1 91 1 292 1 121 1 360 1
332 0 5 321 1 382 1 272 1 13 1 209 1
333 0 5 379 1 301 1 232 1 214 1 57 1
334 0 5 266 1 264 1 374 1 234 1 211 1
335 0 5 245 1 159 1 306 1 9 1 28 1
336 0 5 217 1 223 1 330 1 230 1 271 1
337 0 5 149 1 304 1 243 1 316 1 317 1
338 0 5 365 1 358 1 237 1 284 1 199 1
339 0 5 321 1 204 1 272 1 332 1 249 1
340 0 5 384 1 143 1 25 1 363 1 327 1
341 0 5 283 1 297 1 211 1 315 1 326 1
342 0 5 114 1 362 1 102 1 133 1 52 1
343 0 5 144 1 93 1 247 1 117 1 39 1
344 0 5 373 1 124 1 199 1 55 1 222 1
345 0 5 104 1 416 1 420 1 395 1 396 1
346 0 5 345 1 82 1 103 1 73 1 323 1
347 0 5 22 1 77 1 156 1 56 1 330 1
348 0 5 284 1 267 1 67 1 325 1 273 1
349 0 5 375 1 366 1 234 1 202 1 261 1
350 0 5 324 1 178 1 129 1 35 1 153 1
351 0 5 320 1 297 1 393 1 189 1 46 1
352 0 5 88 1 388 1 360 1 220 1 268 1
353 0 5 239 1 144 1 241 1 361 1 250 1
354 0 5 236 1 67 1 229 1 275 1 252 1
355 0 5 259 1 262 1 389 1 205 1 374 1
356 0 5 126 1 385 1 310 1 221 1 339 1
357 0 5 378 1 136 1 287 1 229 1 354 1
358 0 5 365 1 244 1 364 1 338 1 237 1
359 0 5 171 1 193 1 139 1 395 1 403 1
360 0 5 352 1 97 1 292 1 331 1 91 1
361 0 5 417 1 416 1 104 1 141 1 64 1
362 0 5 248 1 342 1 102 1 94 1 52 1
363 0 5 256 1 143 1 19 1 384 1 25 1
364 0 5 226 1 372 1 358 1 244 1 284 1
365 0 5 338 1 358 1 237 1 244 1 364 1
366 0 5 349 1 375 1 234 1 202 1 378 1
367 0 5 89 1 22 1 150 1 280 1 307 1
368 0 5 278 1 329 1 211 1 262 1 374 1
369 0 5 309 1 110 1 291 1 55 1 289 1
370 0 5 155 1 21 1 310 1 10 1 142 1
371 0 5 242 1 288 1 263 1 381 1 230 1
372 0 5 122 1 226 1 364 1 287 1 244 1
373 0 5 344 1 199 1 212 1 124 1 237 1
374 0 5 262 1 334 1 266 1 389 1 211 1
375 0 5 349 1 234 1 366 1 202 1 264 1
376 0 5 386 1 330 1 166 1 217 1 77 1
377 0 5 314 1 135 1 337 1 383 1 240 1
378 0 5 357 1 366 1 136 1 234 1 229 1
379 0 5 301 1 77 1 235 1 333 1 214 1
380 0 5 276 1 216 1 322 1 260 1 279 1
381 0 5 230 1 371 1 242 1 228 1 288 1
382 0 5 255 1 13 1 332 1 286 1 257 1
383 0 5 274 1 305 1 317 1 337 1 377 1
384 0 5 340 1 143 1 25 1 291 1 327 1
385 0 5 121 1 331 1 356 1 310 1 126 1
386 0 5 376 1 213 1 330 1 56 1 156 1
387 0 5 133 1 114 1 161 1 102 1 123 1
388 0 5 352 1 268 1 88 1 220 1 299 1
389 0 5 262 1 259 1 374 1 355 1 266 1
390 0 5 253 1 207 1 222 1 273 1 267 1
391 0 5 19 1 212 1 256 1 244 1 369 1
392 0 5 233 1 201 1 260 1 205 1 308 1
393 0 5 319 1 297 1 303 1 351 1 246 1
394 0 5 409 1 411 1 410 1 395 1 396 1
395 0 5 394 1 409 1 411 1 410 1 395 1
396 0 5 394 1 409 1 411 1 410 1 395 1
397 0 5 394 1 409 1 411 1 410 1 395 1
398 0 5 394 1 409 1 411 1 410 1 395 1
399 0 5 394 1 409 1 411 1 410 1 395 1
400 0 5 394 1 409 1 411 1 410 1 395 1
401 0 5 394 1 409 1 411 1 410 1 395 1
402 0 5 394 1 409 1 411 1 410 1 395 1
403 0 5 394 1 409 1 411 1 410 1 395 1
404 0 5 394 1 409 1 411 1 410 1 395 1
405 0 5 394 1 409 1 411 1 410 1 395 1
406 0 5 394 1 409 1 411 1 410 1 395 1
407 0 5 394 1 409 1 411 1 410 1 395 1
408 0 5 394 1 409 1 411 1 410 1 395 1
409 0 5 394 1 409 1 411 1 410 1 395 1
410 0 5 394 1 409 1 411 1 410 1 395 1
411 0 5 394 1 409 1 411 1 410 1 395 1
412 0 5 394 1 409 1 411 1 410 1 395 1
413 0 5 394 1 409 1 411 1 410 1 395 1
414 0 5 394 1 409 1 411 1 410 1 395 1
415 0 5 394 1 409 1 411 1 410 1 395 1
416 0 5 394 1 409 1 411 1 410 1 395 1
417 0 5 394 1 409 1 411 1 410 1 395 1
418 0 5 394 1 409 1 411 1 410 1 395 1
419 0 5 394 1 409 1 411 1 410 1 395 1
420 0 5 394 1 409 1 411 1 410 1 395 1
421 0 5 394 1 409 1 411 1 410 1 395 1
422 0 5 394 1 409 1 411 1 410 1 395 1
423 0 5 394 1 409 1 411 1 410 1 395 1
424 0 5 394 1 409 1 411 1 410 1 395 1
425 0 5 394 1 409 1 411 1 410 1 395 1
426 0 5 394 1 409 1 411 1 410 1 395 1
427 0 5 394 1 409 1 411 1 410 1 395 1
428 0 5 394 1 409 1 411 1 410 1 395 1
429 0 5 394 1 409 1 411 1 410 1 395 1
430 0 5 394 1 409 1 411 1 410 1 395 1
-1
EOF
